



7 7
4 3 5 17 0 4 3 3 1 11 2 14 6 17
0 8 4 10 2 1 1 11 6 19 5 12 3 3
0 3 3 4 5 4 6 19 2 15 1 4 4 18
3 19 6 15 2 10 4 2 0 5 5 11 1 12
4 9 1 12 2 3 0 17 3 1 6 1 5 7
4 15 1 11 2 9 3 14 6 3 0 4 5 3
5 12 0 14 1 17 3 9 6 9 2 9 4 3
